words_hard_train/4389.qaiger
aag 139 24 0 1 115
2
4
12
14
18
20
32
34
46
48
60
62
74
76
88
90
112
116
136
156
176
196
228
256
279
6 2 4
8 3 5
10 7 9
16 12 15
22 19 20
24 18 21
26 23 25
28 16 26
30 29 25
36 33 34
38 32 35
40 37 39
42 31 40
44 43 39
50 47 48
52 46 49
54 51 53
56 45 54
58 57 53
64 61 62
66 60 63
68 65 67
70 59 68
72 71 67
78 75 76
80 74 77
82 79 81
84 73 82
86 85 81
92 89 90
94 88 91
96 93 95
98 87 96
100 99 95
102 11 101
104 10 100
106 103 105
108 13 14
110 109 17
114 111 112
118 114 117
120 113 116
122 119 121
124 17 27
126 125 29
128 115 116
130 127 129
132 122 131
134 112 116
138 135 137
140 134 136
142 139 141
144 132 143
146 133 142
148 30 41
150 149 43
152 147 150
154 145 153
158 140 156
160 141 157
162 159 161
164 44 55
166 165 57
168 163 167
170 155 169
172 162 166
174 171 173
178 161 176
180 160 177
182 179 181
184 58 69
186 185 71
188 183 187
190 175 189
192 182 186
194 191 193
198 180 197
200 181 196
202 199 201
204 72 83
206 205 85
208 203 207
210 195 209
212 202 206
214 211 213
216 86 97
218 217 99
220 116 136
222 157 197
224 222 177
226 221 224
230 227 228
232 226 229
234 231 233
236 120 136
238 236 224
240 235 239
242 234 238
244 241 243
246 218 244
248 214 247
250 219 245
252 249 251
254 106 253
258 232 256
260 233 257
262 259 261
264 263 242
266 254 265
268 107 252
270 264 268
272 267 271
274 262 243
276 274 269
278 272 277
i0 1 x1[7]
i1 1 x2[7]
i2 1 x1[0]
i3 1 x2[0]
i4 1 x1[1]
i5 1 x2[1]
i6 1 x1[2]
i7 1 x2[2]
i8 1 x1[3]
i9 1 x2[3]
i10 1 x1[4]
i11 1 x2[4]
i12 1 x1[5]
i13 1 x2[5]
i14 1 x1[6]
i15 1 x2[6]
i16 2 y1[0]
i17 2 y1[1]
i18 2 y1[2]
i19 2 y1[3]
i20 2 y1[4]
i21 2 y1[5]
i22 2 y1[6]
i23 2 y1[7]
o0 bv[0]
c
simplified
  <
    add
      1 x1
      invert
        1 x2
    subtract
      2 y1
      134
