words_hard_train/4389.qaiger.qdimacs
p cnf 139 346
a 1 2 37 6 7 38 9 10 44 45 16 17 23 24 30 31 0
e 3 4 5 8 11 12 13 14 15 18 19 20 21 22 25 26 27 28 29 32 33 34 35 36 39 40 41 42 43 46 47 48 49 50 51 52 53 54 55 56 57 58 59 60 61 62 63 64 65 66 67 68 69 70 71 72 73 74 75 76 77 78 79 80 81 82 83 84 85 86 87 88 89 90 91 92 93 94 95 96 97 98 99 100 101 102 103 104 105 106 107 108 109 110 111 112 113 114 115 116 117 118 119 120 121 122 123 124 125 126 127 128 129 130 131 132 133 134 135 136 137 138 139 0
-1 -2 3 0
1 -3 0
2 -3 0
1 2 4 0
-1 -4 0
-2 -4 0
3 4 5 0
-3 -5 0
-4 -5 0
-6 7 8 0
6 -8 0
-7 -8 0
9 -10 11 0
-9 -11 0
10 -11 0
-9 10 12 0
9 -12 0
-10 -12 0
11 12 13 0
-11 -13 0
-12 -13 0
-8 -13 14 0
8 -14 0
13 -14 0
14 12 15 0
-14 -15 0
-12 -15 0
16 -17 18 0
-16 -18 0
17 -18 0
-16 17 19 0
16 -19 0
-17 -19 0
18 19 20 0
-18 -20 0
-19 -20 0
15 -20 21 0
-15 -21 0
20 -21 0
21 19 22 0
-21 -22 0
-19 -22 0
23 -24 25 0
-23 -25 0
24 -25 0
-23 24 26 0
23 -26 0
-24 -26 0
25 26 27 0
-25 -27 0
-26 -27 0
22 -27 28 0
-22 -28 0
27 -28 0
28 26 29 0
-28 -29 0
-26 -29 0
30 -31 32 0
-30 -32 0
31 -32 0
-30 31 33 0
30 -33 0
-31 -33 0
32 33 34 0
-32 -34 0
-33 -34 0
29 -34 35 0
-29 -35 0
34 -35 0
35 33 36 0
-35 -36 0
-33 -36 0
37 -38 39 0
-37 -39 0
38 -39 0
-37 38 40 0
37 -40 0
-38 -40 0
39 40 41 0
-39 -41 0
-40 -41 0
36 -41 42 0
-36 -42 0
41 -42 0
42 40 43 0
-42 -43 0
-40 -43 0
44 -45 46 0
-44 -46 0
45 -46 0
-44 45 47 0
44 -47 0
-45 -47 0
46 47 48 0
-46 -48 0
-47 -48 0
43 -48 49 0
-43 -49 0
48 -49 0
49 47 50 0
-49 -50 0
-47 -50 0
5 50 51 0
-5 -51 0
-50 -51 0
-5 -50 52 0
5 -52 0
50 -52 0
51 52 53 0
-51 -53 0
-52 -53 0
6 -7 54 0
-6 -54 0
7 -54 0
54 8 55 0
-54 -55 0
-8 -55 0
55 -56 57 0
-55 -57 0
56 -57 0
-57 58 59 0
57 -59 0
-58 -59 0
56 -58 60 0
-56 -60 0
58 -60 0
59 60 61 0
-59 -61 0
-60 -61 0
8 13 62 0
-8 -62 0
-13 -62 0
62 14 63 0
-62 -63 0
-14 -63 0
57 -58 64 0
-57 -64 0
58 -64 0
63 64 65 0
-63 -65 0
-64 -65 0
-61 65 66 0
61 -66 0
-65 -66 0
-56 -58 67 0
56 -67 0
58 -67 0
67 68 69 0
-67 -69 0
-68 -69 0
-67 -68 70 0
67 -70 0
68 -70 0
69 70 71 0
-69 -71 0
-70 -71 0
-66 71 72 0
66 -72 0
-71 -72 0
66 -71 73 0
-66 -73 0
71 -73 0
-15 20 74 0
15 -74 0
-20 -74 0
74 21 75 0
-74 -75 0
-21 -75 0
73 -75 76 0
-73 -76 0
75 -76 0
72 76 77 0
-72 -77 0
-76 -77 0
-70 -78 79 0
70 -79 0
78 -79 0
70 78 80 0
-70 -80 0
-78 -80 0
79 80 81 0
-79 -81 0
-80 -81 0
-22 27 82 0
22 -82 0
-27 -82 0
82 28 83 0
-82 -83 0
-28 -83 0
81 83 84 0
-81 -84 0
-83 -84 0
77 84 85 0
-77 -85 0
-84 -85 0
-81 -83 86 0
81 -86 0
83 -86 0
85 86 87 0
-85 -87 0
-86 -87 0
80 -88 89 0
-80 -89 0
88 -89 0
-80 88 90 0
80 -90 0
-88 -90 0
89 90 91 0
-89 -91 0
-90 -91 0
-29 34 92 0
29 -92 0
-34 -92 0
92 35 93 0
-92 -93 0
-35 -93 0
91 93 94 0
-91 -94 0
-93 -94 0
87 94 95 0
-87 -95 0
-94 -95 0
-91 -93 96 0
91 -96 0
93 -96 0
95 96 97 0
-95 -97 0
-96 -97 0
-90 98 99 0
90 -99 0
-98 -99 0
90 -98 100 0
-90 -100 0
98 -100 0
99 100 101 0
-99 -101 0
-100 -101 0
-36 41 102 0
36 -102 0
-41 -102 0
102 42 103 0
-102 -103 0
-42 -103 0
101 103 104 0
-101 -104 0
-103 -104 0
97 104 105 0
-97 -105 0
-104 -105 0
-101 -103 106 0
101 -106 0
103 -106 0
105 106 107 0
-105 -107 0
-106 -107 0
-43 48 108 0
43 -108 0
-48 -108 0
108 49 109 0
-108 -109 0
-49 -109 0
-58 -68 110 0
58 -110 0
68 -110 0
78 98 111 0
-78 -111 0
-98 -111 0
-111 88 112 0
111 -112 0
-88 -112 0
110 -112 113 0
-110 -113 0
112 -113 0
113 -114 115 0
-113 -115 0
114 -115 0
-113 114 116 0
113 -116 0
-114 -116 0
115 116 117 0
-115 -117 0
-116 -117 0
-60 -68 118 0
60 -118 0
68 -118 0
-118 -112 119 0
118 -119 0
112 -119 0
117 119 120 0
-117 -120 0
-119 -120 0
-117 -119 121 0
117 -121 0
119 -121 0
120 121 122 0
-120 -122 0
-121 -122 0
-109 -122 123 0
109 -123 0
122 -123 0
-107 123 124 0
107 -124 0
-123 -124 0
109 122 125 0
-109 -125 0
-122 -125 0
124 125 126 0
-124 -126 0
-125 -126 0
-53 126 127 0
53 -127 0
-126 -127 0
-116 -128 129 0
116 -129 0
128 -129 0
116 128 130 0
-116 -130 0
-128 -130 0
129 130 131 0
-129 -131 0
-130 -131 0
131 -121 132 0
-131 -132 0
121 -132 0
-127 132 133 0
127 -133 0
-132 -133 0
53 -126 134 0
-53 -134 0
126 -134 0
-132 -134 135 0
132 -135 0
134 -135 0
133 135 136 0
-133 -136 0
-135 -136 0
-131 121 137 0
131 -137 0
-121 -137 0
-137 134 138 0
137 -138 0
-134 -138 0
-136 138 139 0
136 -139 0
-138 -139 0
-139 0
